decision_x1=[0,7];
decision_x2=[0,7];
decision_x3=[0,7];
decision_x4=[0,7];
decision_x5=[0,7];
decision_x6=[0,7];
decision_x7=[0,7];
decision_x8=[0,7];
decision_x9=[0,7];
decision_x10=[0,7];
decision_x11=[0,7];
decision_x12=[0,7];
decision_x13=[0,7];
decision_x14=[0,7];
decision_x15=[0,7];
decision_x16=[0,7];
decision_x17=[0,7];
decision_x18=[0,7];
random_y1=[0,7];
random_y2=[0,7];
random_y3=[0,7];
random_y4=[0,7];
random_y5=[0,7];
random_y6=[0,7];
random_y7=[0,7];
random_y8=[0,7];
constraint_x2_x1=[
0,0,5.3|
0,1,6.2|
0,2,6.8|
0,3,3.6|
0,4,3.9|
0,5,6|
0,6,7.6|
0,7,4.5|
1,0,3.5|
1,1,1.7|
1,2,9.8|
1,3,5.1|
1,4,7.4|
1,5,0.97|
1,6,5.3|
1,7,1.6|
2,0,2.2|
2,1,6.9|
2,2,7.5|
2,3,5.4|
2,4,5|
2,5,9.6|
2,6,9.7|
2,7,7.6|
3,0,8.6|
3,1,5.2|
3,2,3.2|
3,3,1.4|
3,4,5.2|
3,5,5.1|
3,6,9.3|
3,7,2.9|
4,0,5.3|
4,1,4.9|
4,2,4.5|
4,3,4.4|
4,4,1.7|
4,5,7.5|
4,6,3.3|
4,7,6.9|
5,0,7.5|
5,1,7.2|
5,2,3.5|
5,3,5.7|
5,4,0.28|
5,5,2.4|
5,6,0.16|
5,7,8.7|
6,0,6|
6,1,6.7|
6,2,0.55|
6,3,0.5|
6,4,9.4|
6,5,3.6|
6,6,7.9|
6,7,7.6|
7,0,3.8|
7,1,5.9|
7,2,1.2|
7,3,9.9|
7,4,3.7|
7,5,1.7|
7,6,8.2|
7,7,0.58|
];
constraint_x3_x2=[
0,0,6.4|
0,1,9.1|
0,2,9.4|
0,3,4.4|
0,4,5.3|
0,5,8.2|
0,6,2.1|
0,7,2.9|
1,0,7.6|
1,1,0.51|
1,2,4.6|
1,3,3.3|
1,4,0.38|
1,5,5.7|
1,6,5.3|
1,7,2.9|
2,0,7.5|
2,1,6.6|
2,2,0.2|
2,3,1.7|
2,4,7.4|
2,5,6.8|
2,6,9.2|
2,7,2.2|
3,0,9.9|
3,1,0.47|
3,2,2|
3,3,5.2|
3,4,2.7|
3,5,3.7|
3,6,7.3|
3,7,2.6|
4,0,7.9|
4,1,1.5|
4,2,0.54|
4,3,3.5|
4,4,2.2|
4,5,2.5|
4,6,8.2|
4,7,7.1|
5,0,1.7|
5,1,4.8|
5,2,2.6|
5,3,5|
5,4,0.77|
5,5,5.5|
5,6,3.8|
5,7,6.9|
6,0,9.3|
6,1,1.2|
6,2,7.6|
6,3,4.3|
6,4,0.0048|
6,5,4.2|
6,6,6.7|
6,7,5.6|
7,0,6.9|
7,1,8.8|
7,2,5.5|
7,3,3.5|
7,4,1.9|
7,5,6.4|
7,6,7.2|
7,7,6.3|
];
constraint_x4_x3=[
0,0,5.4|
0,1,3.7|
0,2,6.3|
0,3,2.3|
0,4,2.7|
0,5,4.7|
0,6,9.8|
0,7,0.49|
1,0,2.4|
1,1,1.8|
1,2,7.6|
1,3,6.3|
1,4,8.1|
1,5,9.8|
1,6,7.8|
1,7,0.5|
2,0,3.5|
2,1,4|
2,2,1.3|
2,3,4.5|
2,4,9.7|
2,5,4.1|
2,6,3.6|
2,7,3.5|
3,0,3.7|
3,1,1|
3,2,9.8|
3,3,8.9|
3,4,7.8|
3,5,4|
3,6,8.9|
3,7,6.8|
4,0,2.9|
4,1,9.3|
4,2,7.6|
4,3,9.2|
4,4,5.4|
4,5,4.5|
4,6,4|
4,7,3.7|
5,0,2.9|
5,1,10|
5,2,7.6|
5,3,8.6|
5,4,4.9|
5,5,3.5|
5,6,0.72|
5,7,6.2|
6,0,4.4|
6,1,8.5|
6,2,6.4|
6,3,1.4|
6,4,0.5|
6,5,2.5|
6,6,8.8|
6,7,2.9|
7,0,4.3|
7,1,6.9|
7,2,4.6|
7,3,1.5|
7,4,0.96|
7,5,7.2|
7,6,1.1|
7,7,8.4|
];
constraint_x5_x1=[
0,0,9.7|
0,1,8.5|
0,2,6|
0,3,6.5|
0,4,5.3|
0,5,9.1|
0,6,2.1|
0,7,6.7|
1,0,4.9|
1,1,0.59|
1,2,0.85|
1,3,5.9|
1,4,4.8|
1,5,4.7|
1,6,4.8|
1,7,5.6|
2,0,8.4|
2,1,4.2|
2,2,4.6|
2,3,3|
2,4,1.3|
2,5,1.6|
2,6,9.6|
2,7,5.9|
3,0,1.1|
3,1,5.7|
3,2,4.9|
3,3,3|
3,4,2.6|
3,5,0.73|
3,6,6.1|
3,7,7.9|
4,0,3.9|
4,1,0.96|
4,2,5.2|
4,3,9.4|
4,4,9.7|
4,5,2.3|
4,6,0.26|
4,7,9.6|
5,0,8.1|
5,1,0.83|
5,2,5.4|
5,3,2.7|
5,4,5.1|
5,5,3.7|
5,6,3.6|
5,7,9.3|
6,0,1.2|
6,1,9.8|
6,2,8.1|
6,3,3.3|
6,4,5.2|
6,5,2.1|
6,6,2.1|
6,7,5.5|
7,0,0.64|
7,1,2.7|
7,2,9.7|
7,3,6.4|
7,4,7.9|
7,5,6.7|
7,6,10|
7,7,0.33|
];
constraint_x6_x2=[
0,0,5.6|
0,1,3|
0,2,3.1|
0,3,4.2|
0,4,5.3|
0,5,6.6|
0,6,1.5|
0,7,8.7|
1,0,5.7|
1,1,3.7|
1,2,4.8|
1,3,8.3|
1,4,9.9|
1,5,7.4|
1,6,8.5|
1,7,0.63|
2,0,8.8|
2,1,2.3|
2,2,5.1|
2,3,2.4|
2,4,4|
2,5,8.2|
2,6,8.6|
2,7,9.5|
3,0,1.5|
3,1,1.1|
3,2,0.45|
3,3,9.2|
3,4,9.1|
3,5,6.3|
3,6,6.9|
3,7,6.2|
4,0,8.4|
4,1,6.7|
4,2,2.1|
4,3,1.4|
4,4,1.1|
4,5,1.2|
4,6,7.8|
4,7,8.3|
5,0,2.1|
5,1,1.6|
5,2,1|
5,3,1.4|
5,4,5.2|
5,5,0.71|
5,6,7.2|
5,7,8.3|
6,0,4.4|
6,1,3.7|
6,2,9.5|
6,3,6.9|
6,4,3.2|
6,5,0.65|
6,6,2.1|
6,7,2.4|
7,0,8.3|
7,1,1.1|
7,2,4.9|
7,3,5.8|
7,4,0.71|
7,5,8.9|
7,6,6.2|
7,7,2.6|
];
constraint_x7_x3=[
0,0,1.2|
0,1,8.1|
0,2,3.3|
0,3,2.8|
0,4,3.3|
0,5,5.6|
0,6,9.4|
0,7,2|
1,0,0.71|
1,1,0.68|
1,2,6.6|
1,3,2.8|
1,4,0.97|
1,5,1.6|
1,6,6.1|
1,7,8.7|
2,0,4.6|
2,1,0.5|
2,2,8.2|
2,3,0.54|
2,4,5.4|
2,5,2.7|
2,6,4.5|
2,7,4|
3,0,4.8|
3,1,7.9|
3,2,8.5|
3,3,6.8|
3,4,2.5|
3,5,9.2|
3,6,0.79|
3,7,8.5|
4,0,7.3|
4,1,1.3|
4,2,1.8|
4,3,2.7|
4,4,5|
4,5,5.2|
4,6,1.9|
4,7,4.8|
5,0,5.7|
5,1,6.2|
5,2,9.1|
5,3,2.3|
5,4,9.1|
5,5,6|
5,6,1.3|
5,7,2.3|
6,0,9.6|
6,1,2.5|
6,2,1.2|
6,3,3.5|
6,4,1.8|
6,5,1.7|
6,6,2.7|
6,7,2.3|
7,0,4.1|
7,1,4.9|
7,2,0.89|
7,3,9|
7,4,7.5|
7,5,7.1|
7,6,0.35|
7,7,2.2|
];
constraint_x8_x4=[
0,0,2.5|
0,1,7.7|
0,2,8.9|
0,3,3.6|
0,4,2.2|
0,5,8.9|
0,6,6.9|
0,7,5.3|
1,0,3.2|
1,1,7.7|
1,2,3.6|
1,3,3.5|
1,4,9.3|
1,5,9.6|
1,6,3|
1,7,2.5|
2,0,2.8|
2,1,2.6|
2,2,8.9|
2,3,5.6|
2,4,0.8|
2,5,4.7|
2,6,2.8|
2,7,7.9|
3,0,4.1|
3,1,9.2|
3,2,0.77|
3,3,7.1|
3,4,4.6|
3,5,3.8|
3,6,3.3|
3,7,2.3|
4,0,2.6|
4,1,6.4|
4,2,6.7|
4,3,1.5|
4,4,1.1|
4,5,10|
4,6,5|
4,7,9.5|
5,0,6.4|
5,1,3|
5,2,3.3|
5,3,2.7|
5,4,5.9|
5,5,2|
5,6,8.9|
5,7,2.3|
6,0,5.9|
6,1,2.1|
6,2,0.3|
6,3,6.7|
6,4,3.1|
6,5,4.7|
6,6,9.7|
6,7,9.5|
7,0,5.2|
7,1,4|
7,2,4.7|
7,3,8.4|
7,4,4.7|
7,5,2.6|
7,6,8.4|
7,7,1.7|
];
constraint_x9_x5=[
0,0,0.37|
0,1,0.051|
0,2,2.1|
0,3,8.9|
0,4,5.3|
0,5,6.3|
0,6,3|
0,7,7.6|
1,0,6.7|
1,1,1.6|
1,2,9.4|
1,3,4.5|
1,4,3.3|
1,5,7.6|
1,6,2.8|
1,7,4.2|
2,0,6.8|
2,1,2.8|
2,2,1.6|
2,3,5.4|
2,4,5.8|
2,5,2.3|
2,6,3|
2,7,0.54|
3,0,2.3|
3,1,8.3|
3,2,8.5|
3,3,9.3|
3,4,2.5|
3,5,4|
3,6,4.9|
3,7,3.9|
4,0,3.6|
4,1,3.4|
4,2,10|
4,3,2.7|
4,4,1.6|
4,5,8.5|
4,6,4.5|
4,7,4.1|
5,0,5.5|
5,1,3.2|
5,2,9.7|
5,3,3.8|
5,4,4.6|
5,5,0.52|
5,6,5.9|
5,7,8.4|
6,0,8.3|
6,1,6.3|
6,2,8.7|
6,3,9.4|
6,4,4.1|
6,5,0.49|
6,6,7.4|
6,7,8.6|
7,0,7.9|
7,1,1.8|
7,2,2.4|
7,3,9.1|
7,4,0.32|
7,5,1.3|
7,6,3.7|
7,7,8.3|
];
constraint_x10_x6=[
0,0,3|
0,1,7.7|
0,2,6.1|
0,3,4.6|
0,4,3.5|
0,5,6.8|
0,6,1.5|
0,7,5.6|
1,0,7.1|
1,1,2.3|
1,2,3.7|
1,3,0.088|
1,4,6.9|
1,5,9.4|
1,6,9.6|
1,7,2.2|
2,0,4.5|
2,1,3.7|
2,2,6.7|
2,3,2.7|
2,4,7|
2,5,8.5|
2,6,7.7|
2,7,9|
3,0,5.4|
3,1,5.8|
3,2,7.1|
3,3,3.9|
3,4,8|
3,5,9.7|
3,6,8.7|
3,7,5.6|
4,0,6.6|
4,1,3.7|
4,2,3.2|
4,3,8.3|
4,4,1.9|
4,5,3.3|
4,6,4.8|
4,7,0.85|
5,0,4.8|
5,1,2|
5,2,9.4|
5,3,9.1|
5,4,5.9|
5,5,6|
5,6,3.3|
5,7,4.4|
6,0,5.6|
6,1,5|
6,2,5.2|
6,3,7.3|
6,4,8.3|
6,5,2.4|
6,6,4.9|
6,7,1.7|
7,0,9.2|
7,1,1.1|
7,2,6|
7,3,0.26|
7,4,4.3|
7,5,1.9|
7,6,0.37|
7,7,0.98|
];
constraint_x11_x7=[
0,0,6.1|
0,1,8.6|
0,2,9.1|
0,3,5.7|
0,4,2|
0,5,9.3|
0,6,6.2|
0,7,1.9|
1,0,4|
1,1,3.8|
1,2,6.6|
1,3,6|
1,4,7.4|
1,5,4|
1,6,9.7|
1,7,9.1|
2,0,0.26|
2,1,8.4|
2,2,9.1|
2,3,0.67|
2,4,3|
2,5,3|
2,6,4.4|
2,7,4.2|
3,0,2.5|
3,1,1.8|
3,2,3.1|
3,3,9.4|
3,4,3.9|
3,5,0.95|
3,6,0.044|
3,7,0.73|
4,0,9.6|
4,1,4.4|
4,2,0.42|
4,3,4.9|
4,4,2.8|
4,5,5.1|
4,6,5.6|
4,7,4.9|
5,0,6.1|
5,1,1.3|
5,2,5|
5,3,6.6|
5,4,3.8|
5,5,8.5|
5,6,1.2|
5,7,2.6|
6,0,3.4|
6,1,1.6|
6,2,5.3|
6,3,0.67|
6,4,7.1|
6,5,7.1|
6,6,5.6|
6,7,9.1|
7,0,2.9|
7,1,1.5|
7,2,5|
7,3,8.7|
7,4,1.9|
7,5,6.9|
7,6,7.8|
7,7,4.9|
];
constraint_x12_x8=[
0,0,4|
0,1,1.9|
0,2,4.5|
0,3,8|
0,4,8.1|
0,5,3.8|
0,6,8.7|
0,7,3.6|
1,0,1.5|
1,1,8.8|
1,2,9.8|
1,3,9.7|
1,4,7.5|
1,5,6.6|
1,6,6.8|
1,7,5.3|
2,0,6.2|
2,1,6.6|
2,2,5.9|
2,3,3.8|
2,4,5.7|
2,5,4.1|
2,6,4.1|
2,7,5.5|
3,0,7.1|
3,1,6.4|
3,2,2.2|
3,3,0.58|
3,4,4.9|
3,5,7.9|
3,6,9|
3,7,6.4|
4,0,4.5|
4,1,4.9|
4,2,0.91|
4,3,1.5|
4,4,2.8|
4,5,7.1|
4,6,1.4|
4,7,9.8|
5,0,6.6|
5,1,7.1|
5,2,8.6|
5,3,2.8|
5,4,7.5|
5,5,1.5|
5,6,8.3|
5,7,5.3|
6,0,5.2|
6,1,8.6|
6,2,1.4|
6,3,6.1|
6,4,1.8|
6,5,1.3|
6,6,4.9|
6,7,7.7|
7,0,1.3|
7,1,4.1|
7,2,6.5|
7,3,9.3|
7,4,3.7|
7,5,9.4|
7,6,5.6|
7,7,5.3|
];
constraint_x13_x9=[
0,0,3|
0,1,7.1|
0,2,5.1|
0,3,3.7|
0,4,1.7|
0,5,9.4|
0,6,8.4|
0,7,7.9|
1,0,8.6|
1,1,2.7|
1,2,2.2|
1,3,1.5|
1,4,4|
1,5,8.6|
1,6,6.8|
1,7,8.8|
2,0,1.5|
2,1,5.9|
2,2,2.4|
2,3,7.1|
2,4,5.8|
2,5,6.8|
2,6,5.1|
2,7,8.7|
3,0,0.49|
3,1,0.85|
3,2,3.3|
3,3,4.5|
3,4,1.4|
3,5,8.8|
3,6,7.4|
3,7,7|
4,0,8.8|
4,1,5.2|
4,2,1.6|
4,3,9.7|
4,4,0.27|
4,5,3.8|
4,6,2.8|
4,7,2|
5,0,2|
5,1,7.1|
5,2,5|
5,3,4|
5,4,9.2|
5,5,3.5|
5,6,6.5|
5,7,5.6|
6,0,8.6|
6,1,8|
6,2,4.9|
6,3,8.1|
6,4,9.8|
6,5,4.1|
6,6,0.35|
6,7,4.8|
7,0,6.7|
7,1,4.1|
7,2,0.19|
7,3,7.3|
7,4,9.3|
7,5,1.5|
7,6,9.9|
7,7,9.2|
];
constraint_x14_x10=[
0,0,9.2|
0,1,3.3|
0,2,5.6|
0,3,2.9|
0,4,9.9|
0,5,8.8|
0,6,9.5|
0,7,6.9|
1,0,7.6|
1,1,2.3|
1,2,7.1|
1,3,2.1|
1,4,1.5|
1,5,3.3|
1,6,3.5|
1,7,7.7|
2,0,2.7|
2,1,6.7|
2,2,6|
2,3,2.9|
2,4,4.6|
2,5,8.3|
2,6,6.8|
2,7,6.9|
3,0,8.8|
3,1,1.7|
3,2,6.7|
3,3,3.6|
3,4,9.2|
3,5,1.9|
3,6,9.9|
3,7,8.6|
4,0,9.5|
4,1,5.9|
4,2,6.1|
4,3,8.8|
4,4,3.5|
4,5,6.9|
4,6,9.1|
4,7,0.29|
5,0,2.1|
5,1,5.4|
5,2,3.4|
5,3,8.9|
5,4,8.5|
5,5,0.92|
5,6,7.3|
5,7,0.39|
6,0,6.2|
6,1,1.3|
6,2,4.5|
6,3,0.78|
6,4,0.21|
6,5,2.9|
6,6,0.85|
6,7,7.1|
7,0,6.8|
7,1,4.7|
7,2,1|
7,3,8.5|
7,4,4.7|
7,5,7.5|
7,6,7.4|
7,7,8.5|
];
constraint_x15_x11=[
0,0,6.9|
0,1,9.8|
0,2,9.1|
0,3,2.9|
0,4,4.8|
0,5,6.7|
0,6,7.9|
0,7,7.7|
1,0,6.5|
1,1,7.2|
1,2,1.9|
1,3,3.1|
1,4,2.3|
1,5,6.8|
1,6,5.1|
1,7,2.5|
2,0,8.4|
2,1,4.9|
2,2,1.3|
2,3,5.2|
2,4,6|
2,5,3.3|
2,6,0.91|
2,7,8.3|
3,0,7.6|
3,1,2.9|
3,2,8.1|
3,3,1.1|
3,4,3.3|
3,5,8.8|
3,6,8.3|
3,7,4.7|
4,0,7.2|
4,1,7.5|
4,2,0.39|
4,3,9.4|
4,4,5|
4,5,9.3|
4,6,3|
4,7,3.2|
5,0,0.79|
5,1,0.5|
5,2,5|
5,3,0.65|
5,4,7.6|
5,5,8.1|
5,6,9.1|
5,7,1.3|
6,0,2.5|
6,1,4.2|
6,2,2.4|
6,3,0.26|
6,4,8.3|
6,5,9.1|
6,6,7.1|
6,7,4.7|
7,0,7.5|
7,1,6.3|
7,2,2.9|
7,3,2.3|
7,4,9.6|
7,5,6.3|
7,6,9.1|
7,7,9.9|
];
constraint_x16_x12=[
0,0,5.9|
0,1,6.9|
0,2,7.4|
0,3,0.4|
0,4,6.3|
0,5,9.7|
0,6,9.1|
0,7,5.2|
1,0,3.2|
1,1,5.3|
1,2,6|
1,3,1.8|
1,4,8.4|
1,5,8.5|
1,6,6.7|
1,7,5.7|
2,0,7.4|
2,1,9.4|
2,2,3|
2,3,4.8|
2,4,8.5|
2,5,5.1|
2,6,10|
2,7,0.92|
3,0,9|
3,1,8.5|
3,2,7.1|
3,3,2.9|
3,4,7.1|
3,5,4.8|
3,6,0.094|
3,7,8.7|
4,0,4.7|
4,1,7.6|
4,2,7.1|
4,3,5.7|
4,4,0.17|
4,5,6.8|
4,6,2.8|
4,7,7.2|
5,0,6.7|
5,1,1.2|
5,2,0.033|
5,3,5.5|
5,4,7.9|
5,5,1.3|
5,6,0.44|
5,7,9.7|
6,0,7|
6,1,1.5|
6,2,4.7|
6,3,3|
6,4,4.8|
6,5,7.8|
6,6,8.2|
6,7,8.9|
7,0,5.6|
7,1,3.9|
7,2,9.2|
7,3,7.1|
7,4,2.9|
7,5,3.6|
7,6,6.1|
7,7,4.9|
];
constraint_x17_x13=[
0,0,0.39|
0,1,1.9|
0,2,4.6|
0,3,7.8|
0,4,4.2|
0,5,8.4|
0,6,3.6|
0,7,4|
1,0,5.4|
1,1,5.4|
1,2,8.5|
1,3,1.7|
1,4,7.6|
1,5,9.1|
1,6,8.5|
1,7,8.8|
2,0,1.2|
2,1,9|
2,2,8.5|
2,3,3.4|
2,4,8|
2,5,8.6|
2,6,5|
2,7,9.9|
3,0,8.3|
3,1,0.99|
3,2,8|
3,3,4.6|
3,4,5.6|
3,5,0.59|
3,6,9.1|
3,7,2.6|
4,0,1.3|
4,1,1.9|
4,2,8|
4,3,8|
4,4,6.9|
4,5,5|
4,6,5.8|
4,7,5.7|
5,0,8.7|
5,1,7.4|
5,2,7.4|
5,3,5.2|
5,4,2.2|
5,5,5.8|
5,6,4.2|
5,7,7.7|
6,0,3.3|
6,1,2|
6,2,4.4|
6,3,1.2|
6,4,5.1|
6,5,0.83|
6,6,5|
6,7,8.1|
7,0,1.9|
7,1,4.1|
7,2,6.9|
7,3,3.3|
7,4,5.3|
7,5,6.3|
7,6,8.6|
7,7,1.6|
];
constraint_x18_x14=[
0,0,5.4|
0,1,6.8|
0,2,4.1|
0,3,1.2|
0,4,0.84|
0,5,3|
0,6,8.1|
0,7,0.17|
1,0,7.3|
1,1,2.2|
1,2,3.3|
1,3,9.1|
1,4,8.2|
1,5,9.4|
1,6,7.5|
1,7,7.5|
2,0,0.92|
2,1,4.8|
2,2,1.4|
2,3,4.8|
2,4,1.3|
2,5,0.24|
2,6,4.9|
2,7,5.8|
3,0,2.6|
3,1,8.4|
3,2,3.8|
3,3,10|
3,4,4.1|
3,5,0.32|
3,6,6.8|
3,7,8.2|
4,0,5.1|
4,1,2.4|
4,2,1.2|
4,3,8.2|
4,4,9.4|
4,5,6.3|
4,6,4|
4,7,3.4|
5,0,5.2|
5,1,9.8|
5,2,9.5|
5,3,5.4|
5,4,0.19|
5,5,1.8|
5,6,9.9|
5,7,3.5|
6,0,3.2|
6,1,8.5|
6,2,0.34|
6,3,1.6|
6,4,3.1|
6,5,9.2|
6,6,6.3|
6,7,4.9|
7,0,5.2|
7,1,6.2|
7,2,4.7|
7,3,7.3|
7,4,9.3|
7,5,9.3|
7,6,3.3|
7,7,9.6|
];
constraint_x1_y1=[
0,0,7.5|
0,1,4.7|
0,2,4.2|
0,3,6.3|
0,4,4.9|
0,5,4.7|
0,6,2.6|
0,7,3.8|
1,0,3.4|
1,1,4.4|
1,2,8.3|
1,3,9.2|
1,4,4.5|
1,5,7.3|
1,6,3.6|
1,7,2|
2,0,3.9|
2,1,6.6|
2,2,3.3|
2,3,2|
2,4,4.4|
2,5,8.6|
2,6,7.7|
2,7,0.64|
3,0,8.8|
3,1,3.7|
3,2,9.2|
3,3,8.3|
3,4,9.5|
3,5,2.1|
3,6,8.2|
3,7,9.4|
4,0,8.6|
4,1,2.1|
4,2,7.9|
4,3,6.7|
4,4,3|
4,5,6.1|
4,6,5|
4,7,6.6|
5,0,2.5|
5,1,2.8|
5,2,4.3|
5,3,8.5|
5,4,0.87|
5,5,4|
5,6,9.8|
5,7,4.7|
6,0,1.7|
6,1,3.3|
6,2,8|
6,3,9.5|
6,4,0.54|
6,5,9.1|
6,6,6.8|
6,7,4|
7,0,7.7|
7,1,1.8|
7,2,9.9|
7,3,6.6|
7,4,2|
7,5,1.7|
7,6,2.7|
7,7,1.3|
];
constraint_x2_y2=[
0,0,5|
0,1,8.2|
0,2,1.4|
0,3,6.4|
0,4,0.52|
0,5,5.1|
0,6,7.5|
0,7,7.7|
1,0,5.4|
1,1,0.64|
1,2,6.1|
1,3,9.1|
1,4,7.4|
1,5,3.4|
1,6,0.043|
1,7,7.8|
2,0,9.6|
2,1,6.1|
2,2,2.5|
2,3,9.4|
2,4,8.8|
2,5,4.5|
2,6,7.9|
2,7,4.9|
3,0,1.9|
3,1,2.2|
3,2,1.3|
3,3,6.7|
3,4,7.6|
3,5,2.3|
3,6,4.7|
3,7,9|
4,0,2.1|
4,1,9.7|
4,2,6|
4,3,6.8|
4,4,3.1|
4,5,6.3|
4,6,5.2|
4,7,0.26|
5,0,0.99|
5,1,3.3|
5,2,2.4|
5,3,8.2|
5,4,5.6|
5,5,0.55|
5,6,9.5|
5,7,1.4|
6,0,5.3|
6,1,5.7|
6,2,3.5|
6,3,9.5|
6,4,8.9|
6,5,9.6|
6,6,5.7|
6,7,2.1|
7,0,4|
7,1,1.9|
7,2,7.2|
7,3,4|
7,4,2.6|
7,5,5.4|
7,6,1.7|
7,7,8.1|
];
constraint_x3_y3=[
0,0,9.4|
0,1,3.8|
0,2,3.5|
0,3,4.4|
0,4,9.4|
0,5,8.3|
0,6,7.7|
0,7,3.9|
1,0,8.3|
1,1,1.3|
1,2,0.87|
1,3,6.7|
1,4,4.6|
1,5,7.8|
1,6,6.6|
1,7,2.8|
2,0,6.3|
2,1,7.3|
2,2,9.8|
2,3,0.72|
2,4,8.1|
2,5,0.0092|
2,6,4.4|
2,7,1.4|
3,0,4.4|
3,1,8.4|
3,2,8.7|
3,3,8.2|
3,4,1.9|
3,5,1.7|
3,6,8|
3,7,2.8|
4,0,8.2|
4,1,1.7|
4,2,7.9|
4,3,1.9|
4,4,6.3|
4,5,1.7|
4,6,4.1|
4,7,8.5|
5,0,5.9|
5,1,8.7|
5,2,3|
5,3,7.6|
5,4,4.2|
5,5,7.5|
5,6,1.4|
5,7,7.1|
6,0,8.8|
6,1,1.2|
6,2,4.6|
6,3,3.2|
6,4,5.3|
6,5,0.9|
6,6,0.4|
6,7,6.5|
7,0,8.4|
7,1,9.8|
7,2,6.1|
7,3,0.49|
7,4,0.17|
7,5,8.2|
7,6,2.1|
7,7,9.3|
];
constraint_x4_y4=[
0,0,3.8|
0,1,8.8|
0,2,6.6|
0,3,1.5|
0,4,1.3|
0,5,7.6|
0,6,8.4|
0,7,5.3|
1,0,5.6|
1,1,6.1|
1,2,0.79|
1,3,6.6|
1,4,1.9|
1,5,3.9|
1,6,1.2|
1,7,1.6|
2,0,4.4|
2,1,3.1|
2,2,7.7|
2,3,9.1|
2,4,0.91|
2,5,8.5|
2,6,2.6|
2,7,2.5|
3,0,5.6|
3,1,4.4|
3,2,6.7|
3,3,9.6|
3,4,1.8|
3,5,0.15|
3,6,0.77|
3,7,7|
4,0,5.3|
4,1,1.4|
4,2,5.4|
4,3,7.4|
4,4,7.2|
4,5,7.5|
4,6,8.3|
4,7,4|
5,0,9.5|
5,1,7.6|
5,2,0.12|
5,3,7.9|
5,4,2.7|
5,5,2.7|
5,6,5.1|
5,7,7.3|
6,0,6.1|
6,1,7.8|
6,2,2.9|
6,3,7.8|
6,4,8.3|
6,5,1.9|
6,6,3.2|
6,7,1.7|
7,0,7.7|
7,1,0.42|
7,2,0.067|
7,3,1.5|
7,4,2.9|
7,5,4.5|
7,6,8.1|
7,7,0.7|
];
constraint_x5_y5=[
0,0,1.8|
0,1,6|
0,2,7.7|
0,3,1.4|
0,4,9.8|
0,5,4.8|
0,6,2.3|
0,7,3.7|
1,0,2.3|
1,1,4.1|
1,2,7.8|
1,3,8.8|
1,4,8.7|
1,5,4.5|
1,6,5.7|
1,7,7.8|
2,0,7.2|
2,1,8.8|
2,2,3.4|
2,3,9.9|
2,4,1.2|
2,5,4.3|
2,6,2|
2,7,6.5|
3,0,5|
3,1,6.3|
3,2,5.8|
3,3,9.1|
3,4,8.2|
3,5,2.9|
3,6,8.7|
3,7,8.7|
4,0,3.3|
4,1,0.07|
4,2,4|
4,3,2.2|
4,4,0.045|
4,5,6.4|
4,6,6.7|
4,7,6|
5,0,2.5|
5,1,8|
5,2,0.46|
5,3,2.8|
5,4,0.7|
5,5,2.7|
5,6,8.2|
5,7,2.6|
6,0,8.7|
6,1,9.9|
6,2,6.8|
6,3,7.3|
6,4,7.3|
6,5,8.7|
6,6,6.9|
6,7,4|
7,0,5.1|
7,1,4.2|
7,2,8.6|
7,3,0.99|
7,4,6.7|
7,5,1.4|
7,6,3.2|
7,7,8.6|
];
constraint_x6_y6=[
0,0,4.1|
0,1,5.4|
0,2,6|
0,3,1.4|
0,4,4.6|
0,5,3.6|
0,6,1.2|
0,7,2.1|
1,0,1.7|
1,1,5.3|
1,2,7.7|
1,3,6.5|
1,4,7.8|
1,5,9.4|
1,6,4.2|
1,7,0.57|
2,0,2.3|
2,1,7.1|
2,2,7.5|
2,3,9.8|
2,4,5.1|
2,5,7.4|
2,6,5.2|
2,7,2.7|
3,0,6|
3,1,7.9|
3,2,8.5|
3,3,6.3|
3,4,6.5|
3,5,1.3|
3,6,3.4|
3,7,5.4|
4,0,8.3|
4,1,0.69|
4,2,9.6|
4,3,5.1|
4,4,4|
4,5,2.6|
4,6,8.5|
4,7,8.6|
5,0,4.6|
5,1,8.9|
5,2,7.7|
5,3,5.9|
5,4,9.1|
5,5,0.91|
5,6,2.5|
5,7,3.7|
6,0,3.5|
6,1,4.7|
6,2,1.1|
6,3,1.5|
6,4,9.8|
6,5,0.9|
6,6,0.91|
6,7,6.9|
7,0,0.86|
7,1,9.7|
7,2,5.4|
7,3,1.4|
7,4,3.7|
7,5,8.8|
7,6,7.8|
7,7,7.3|
];
constraint_x7_y7=[
0,0,1.1|
0,1,5.2|
0,2,7.7|
0,3,2.7|
0,4,5.8|
0,5,6|
0,6,1.4|
0,7,5.8|
1,0,1.2|
1,1,0.49|
1,2,3.8|
1,3,1.1|
1,4,0.071|
1,5,5.8|
1,6,5.4|
1,7,8.4|
2,0,9.1|
2,1,9.5|
2,2,8|
2,3,6.8|
2,4,7|
2,5,2.7|
2,6,3.1|
2,7,2.6|
3,0,1.7|
3,1,5.9|
3,2,7.8|
3,3,5.9|
3,4,2.8|
3,5,5.6|
3,6,7.5|
3,7,3.8|
4,0,4.4|
4,1,3.7|
4,2,6.6|
4,3,3.3|
4,4,8.9|
4,5,9.1|
4,6,4.1|
4,7,8.2|
5,0,3.7|
5,1,7.7|
5,2,6.7|
5,3,3.3|
5,4,5.5|
5,5,3.4|
5,6,7.1|
5,7,9.9|
6,0,10|
6,1,5.7|
6,2,6.9|
6,3,7.1|
6,4,4.3|
6,5,3|
6,6,8.6|
6,7,3.5|
7,0,0.21|
7,1,4.1|
7,2,2.2|
7,3,1.3|
7,4,10|
7,5,1.3|
7,6,4.4|
7,7,0.92|
];
constraint_x8_y8=[
0,0,4.2|
0,1,6|
0,2,7.3|
0,3,9.5|
0,4,7.9|
0,5,5.3|
0,6,5.7|
0,7,4.4|
1,0,8.5|
1,1,8.6|
1,2,2|
1,3,0.35|
1,4,0.89|
1,5,8.4|
1,6,5.1|
1,7,0.35|
2,0,0.93|
2,1,4.6|
2,2,8.3|
2,3,6.7|
2,4,1.3|
2,5,2.7|
2,6,8.2|
2,7,9.6|
3,0,5.9|
3,1,1.1|
3,2,9.7|
3,3,5.6|
3,4,9|
3,5,9.4|
3,6,8.9|
3,7,0.078|
4,0,1.2|
4,1,6.3|
4,2,0.67|
4,3,6.1|
4,4,2.5|
4,5,5.1|
4,6,0.4|
4,7,2|
5,0,1.3|
5,1,6.2|
5,2,8.2|
5,3,4.6|
5,4,8.4|
5,5,8.5|
5,6,7.7|
5,7,0.91|
6,0,4.7|
6,1,1.6|
6,2,3.7|
6,3,1.4|
6,4,8.4|
6,5,7.6|
6,6,7.5|
6,7,2.3|
7,0,9.3|
7,1,8.8|
7,2,8.6|
7,3,7.4|
7,4,9.5|
7,5,6.5|
7,6,8.8|
7,7,0.3|
];
initial_distribution_y1=[0.15,0.065,0.042,0.18,0.05,0.029,0.22,0.27];
initial_distribution_y2=[0.07,0.21,0.082,0.14,0.03,0.074,0.21,0.19];
initial_distribution_y3=[0.12,0.15,0.1,0.17,0.12,0.052,0.11,0.19];
initial_distribution_y4=[0.17,0.29,0.072,0.31,0.0078,0.1,0.0087,0.042];
initial_distribution_y5=[0.091,0.13,0.076,0.12,0.16,0.13,0.14,0.15];
initial_distribution_y6=[0.26,0.098,0.19,0.012,0.048,0.28,0.0052,0.11];
initial_distribution_y7=[0.0083,0.19,0.12,0.15,0.091,0.1,0.16,0.18];
initial_distribution_y8=[0.13,0.046,0.21,0.15,0.083,0.026,0.13,0.23];
transition_y1=[
0.034,0.068,0.14,0.071,0.13,0.15,0.13,0.28|
0.13,0.1,0.036,0.15,0.14,0.19,0.066,0.19|
0.093,0.073,0.11,0.18,0.1,0.17,0.12,0.15|
0.061,0.046,0.19,0.21,0.013,0.15,0.14,0.19|
0.038,0.12,0.29,0.28,0.054,0.09,0.11,0.017|
0.075,0.15,0.09,0.14,0.14,0.12,0.14,0.13|
0.027,0.11,0.094,0.15,0.11,0.18,0.23,0.097|
0.0064,0.058,0.15,0.23,0.085,0.19,0.15,0.13|
];
transition_y2=[
0.13,0.042,0.17,0.11,0.12,0.12,0.15,0.16|
0.16,0.17,0.25,0.14,0.17,0.034,0.0062,0.064|
0.078,0.055,0.11,0.17,0.2,0.2,0.017,0.18|
0.16,0.1,0.087,0.19,0.019,0.17,0.12,0.15|
0.17,0.13,0.11,0.14,0.1,0.1,0.19,0.067|
0.29,0.11,0.085,0.081,0.21,0.041,0.1,0.076|
0.014,0.21,0.15,0.13,0.17,0.11,0.09,0.13|
0.18,0.093,0.019,0.21,0.22,0.0047,0.078,0.2|
];
transition_y3=[
0.13,0.2,0.27,0.0066,0.21,0.066,0.088,0.031|
0.19,0.012,0.2,0.24,0.0078,0.094,0.11,0.16|
0.21,0.06,0.12,0.02,0.19,0.17,0.17,0.05|
0.11,0.093,0.13,0.1,0.12,0.24,0.16,0.042|
0.28,0.033,0.24,0.024,0.13,0.046,0.23,0.0087|
0.19,0.2,0.2,0.098,0.035,0.035,0.14,0.11|
0.092,0.16,0.2,0.24,0.037,0.0029,0.11,0.16|
0.13,0.015,0.11,0.096,0.13,0.12,0.17,0.23|
];
transition_y4=[
0.16,0.063,0.13,0.093,0.17,0.13,0.11,0.15|
0.24,0.073,0.14,0.12,0.078,0.24,0.016,0.086|
0.066,0.037,0.21,0.11,0.16,0.2,0.029,0.18|
0.06,0.098,0.15,0.19,0.091,0.079,0.21,0.13|
0.17,0.15,0.15,0.046,0.094,0.12,0.25,0.015|
0.057,0.026,0.15,0.25,0.16,0.16,0.11,0.092|
0.12,0.11,0.27,0.19,0.04,0.045,0.079,0.14|
0.15,0.23,0.11,0.0046,0.17,0.11,0.21,0.014|
];
transition_y5=[
0.22,0.15,0.064,0.02,0.072,0.2,0.081,0.19|
0.2,0.063,0.18,0.069,0.22,0.037,0.054,0.18|
0.035,0.12,0.15,0.09,0.12,0.18,0.2,0.11|
0.16,0.032,0.19,0.058,0.17,0.1,0.053,0.23|
0.11,0.09,0.13,0.25,0.13,0.074,0.092,0.12|
0.0032,0.27,0.2,0.068,0.033,0.066,0.19,0.17|
0.022,0.1,0.2,0.22,0.13,0.2,0.092,0.04|
0.033,0.23,0.1,0.26,0.19,0.033,0.14,0.012|
];
transition_y6=[
0.16,0.077,0.17,0.065,0.062,0.2,0.16,0.1|
0.11,0.084,0.15,0.16,0.061,0.12,0.19,0.13|
0.17,0.18,0.079,0.085,0.011,0.093,0.19,0.19|
0.1,0.17,0.18,0.11,0.16,0.037,0.13,0.11|
0.1,0.051,0.2,0.14,0.1,0.054,0.18,0.17|
0.1,0.1,0.041,0.22,0.19,0.11,0.076,0.16|
0.14,0.14,0.025,0.18,0.13,0.081,0.17,0.13|
0.18,0.086,0.067,0.2,0.066,0.16,0.15,0.088|
];
transition_y7=[
0.053,0.088,0.17,0.13,0.057,0.23,0.26,0.0056|
0.12,0.015,0.23,0.13,0.17,0.047,0.22,0.071|
0.18,0.068,0.054,0.14,0.21,0.12,0.019,0.21|
0.014,0.22,0.19,0.033,0.17,0.12,0.23,0.014|
0.056,0.11,0.14,0.0082,0.29,0.21,0.013,0.16|
0.056,0.019,0.29,0.3,0.25,0.03,0.0094,0.039|
0.097,0.11,0.061,0.093,0.14,0.22,0.19,0.093|
0.078,0.23,0.17,0.083,0.037,0.011,0.2,0.19|
];
transition_y8=[
0.17,0.29,0.027,0.12,0.047,0.16,0.014,0.17|
0.16,0.012,0.061,0.22,0.11,0.099,0.14,0.2|
0.13,0.061,0.1,0.21,0.093,0.19,0.071,0.14|
0.19,0.077,0.095,0.17,0.16,0.08,0.13,0.1|
0.087,0.11,0.025,0.12,0.094,0.1,0.15,0.32|
0.24,0.24,0.006,0.15,0.15,0.039,0.097,0.067|
0.17,0.013,0.12,0.14,0.17,0.076,0.21,0.095|
0.27,0.068,0.12,0.06,0.16,0.049,0.22,0.052|
];
